(set-logic ALL)
(declare-fun var0 () String)
(assert (str.in_re var0 (re.++ (re.+ (re.* (str.to_re "0"))) (re.++ (re.+ (re.* (str.to_re "1"))) (re.++ (re.union (re.* (str.to_re "22")) (re.* (str.to_re "3"))) (re.++ (re.union (re.* (str.to_re "44")) (re.* (str.to_re "5"))) (re.++ (re.union (re.union (str.to_re "666") (str.to_re "77")) (re.union (str.to_re "888") (str.to_re "99"))) (re.++ (re.* (re.union (str.to_re "aaa") (str.to_re "bb"))) (re.++ (re.* (re.union (str.to_re "cc") (str.to_re "d"))) (re.++ (re.+ (re.* (str.to_re "e"))) (re.++ (re.+ (re.+ (str.to_re "f"))) (re.++ (re.union (re.* (str.to_re "gg")) (re.* (str.to_re "h"))) (re.++ (re.* (re.union (str.to_re "ii") (str.to_re "j"))) (re.++ (re.* (re.* (str.to_re "kk"))) (re.++ (re.* (re.* (str.to_re "ll"))) (re.++ (re.+ (re.+ (str.to_re "mm"))) (re.++ (re.union (re.* (str.to_re "nnn")) (re.* (str.to_re "o"))) (re.++ (re.+ (re.+ (str.to_re "p"))) (re.++ (re.union (re.union (str.to_re "q") (str.to_re "r")) (re.union (str.to_re "ss") (str.to_re "t"))) (re.++ (re.+ (re.+ (str.to_re "uuu"))) (re.++ (re.+ (re.* (str.to_re "vvv"))) (re.++ (re.+ (re.union (str.to_re "ww") (str.to_re "xx"))) (re.++ (re.* (re.* (str.to_re "y"))) (re.++ (re.* (re.* (str.to_re "zz"))) (re.++ (re.union (re.+ (str.to_re "AA")) (re.+ (str.to_re "BB"))) (re.++ (re.union (re.+ (str.to_re "CC")) (re.+ (str.to_re "DDD"))) (re.++ (re.* (re.union (str.to_re "EEE") (str.to_re "FF"))) (re.++ (re.+ (re.* (str.to_re "G"))) (re.++ (re.union (re.+ (str.to_re "HH")) (re.+ (str.to_re "II"))) (re.++ (re.* (re.union (str.to_re "J") (str.to_re "KK"))) (re.++ (re.+ (re.+ (str.to_re "L"))) (re.++ (re.union (re.+ (str.to_re "MMM")) (re.+ (str.to_re "N"))) (re.++ (re.union (re.* (str.to_re "O")) (re.* (str.to_re "PP"))) (re.++ (re.union (re.+ (str.to_re "Q")) (re.+ (str.to_re "R"))) (re.++ (re.+ (re.* (str.to_re "SSS"))) (re.++ (re.* (re.union (str.to_re "TT") (str.to_re "UU"))) (re.++ (re.+ (re.+ (str.to_re "V"))) (re.++ (re.* (re.* (str.to_re "W"))) (re.++ (re.union (re.* (str.to_re "XXX")) (re.* (str.to_re "YY"))) (re.++ (re.* (re.union (str.to_re "Z") (str.to_re "!"))) (re.++ (re.* (re.* (str.to_re """"""""))) (re.++ (re.* (re.+ (str.to_re "#"))) (re.++ (re.+ (re.+ (str.to_re "$"))) (re.++ (re.* (re.union (str.to_re "%%%") (str.to_re "&"))) (re.++ (re.+ (re.union (str.to_re "'''") (str.to_re "("))) (re.++ (re.* (re.union (str.to_re "))") (str.to_re "**"))) (re.++ (re.union (re.union (str.to_re "+++") (str.to_re ",,,")) (re.union (str.to_re "-") (str.to_re "."))) (re.++ (re.union (re.union (str.to_re "/") (str.to_re ":::")) (re.union (str.to_re ";") (str.to_re "<<<"))) (re.++ (re.+ (re.+ (str.to_re "==="))) (re.++ (re.union (re.+ (str.to_re ">")) (re.+ (str.to_re "???"))) (re.++ (re.+ (re.* (str.to_re "@"))) (re.++ (re.* (re.* (str.to_re "["))) (re.++ (re.* (re.* (str.to_re "\\"))) (re.++ (re.+ (re.* (str.to_re "]]"))) (re.++ (re.+ (re.union (str.to_re "^^^") (str.to_re "__"))) (re.++ (re.+ (re.+ (str.to_re "``"))) (re.++ (re.* (re.union (str.to_re "{") (str.to_re "||"))) (re.++ (re.* (re.union (str.to_re "}}}") (str.to_re "~~~"))) (re.++ (re.union (re.+ (str.to_re "0")) (re.+ (str.to_re "1"))) (re.++ (re.+ (re.* (str.to_re "222"))) (re.++ (re.+ (re.+ (str.to_re "333"))) (re.++ (re.* (re.* (str.to_re "444"))) (re.++ (re.union (re.union (str.to_re "55") (str.to_re "66")) (re.union (str.to_re "777") (str.to_re "88"))) (re.++ (re.* (re.* (str.to_re "99"))) (re.++ (re.union (re.+ (str.to_re "aaa")) (re.+ (str.to_re "bb"))) (re.++ (re.union (re.union (str.to_re "c") (str.to_re "dd")) (re.union (str.to_re "ee") (str.to_re "fff"))) (re.++ (re.* (re.* (str.to_re "ggg"))) (re.++ (re.union (re.* (str.to_re "hhh")) (re.* (str.to_re "iii"))) (re.++ (re.+ (re.* (str.to_re "j"))) (re.++ (re.+ (re.* (str.to_re "kkk"))) (re.++ (re.+ (re.* (str.to_re "lll"))) (re.++ (re.+ (re.* (str.to_re "mmm"))) (re.++ (re.+ (re.+ (str.to_re "nn"))) (re.++ (re.+ (re.+ (str.to_re "oo"))) (re.++ (re.union (re.union (str.to_re "pp") (str.to_re "qq")) (re.union (str.to_re "r") (str.to_re "sss"))) (re.++ (re.union (re.* (str.to_re "ttt")) (re.* (str.to_re "u"))) (re.++ (re.+ (re.* (str.to_re "vvv"))) (re.++ (re.* (re.* (str.to_re "www"))) (re.++ (re.+ (re.* (str.to_re "x"))) (re.++ (re.+ (re.union (str.to_re "yyy") (str.to_re "z"))) (re.++ (re.union (re.+ (str.to_re "A")) (re.+ (str.to_re "BBB"))) (re.++ (re.union (re.* (str.to_re "CC")) (re.* (str.to_re "DD"))) (re.++ (re.+ (re.union (str.to_re "EEE") (str.to_re "FFF"))) (re.++ (re.+ (re.+ (str.to_re "G"))) (re.++ (re.* (re.union (str.to_re "HH") (str.to_re "I"))) (re.++ (re.* (re.* (str.to_re "J"))) (re.++ (re.union (re.union (str.to_re "KKK") (str.to_re "LL")) (re.union (str.to_re "M") (str.to_re "NNN"))) (re.++ (re.* (re.* (str.to_re "OO"))) (re.++ (re.union (re.union (str.to_re "PPP") (str.to_re "QQQ")) (re.union (str.to_re "RRR") (str.to_re "SSS"))) (re.++ (re.* (re.+ (str.to_re "TT"))) (re.++ (re.union (re.* (str.to_re "U")) (re.* (str.to_re "VVV"))) (re.++ (re.union (re.+ (str.to_re "WWW")) (re.+ (str.to_re "XX"))) (re.++ (re.* (re.+ (str.to_re "YYY"))) (re.++ (re.+ (re.+ (str.to_re "ZZ"))) (re.++ (re.+ (re.+ (str.to_re "!"))) (re.++ (re.* (re.+ (str.to_re """"))) (re.++ (re.* (re.* (str.to_re "###"))) (re.++ (re.union (re.+ (str.to_re "$$$")) (re.+ (str.to_re "%"))) (re.++ (re.+ (re.union (str.to_re "&") (str.to_re "''"))) (re.++ (re.union (re.* (str.to_re "((")) (re.* (str.to_re "))"))) (re.++ (re.* (re.* (str.to_re "***"))) (re.++ (re.union (re.+ (str.to_re "++")) (re.+ (str.to_re ",,,"))) (re.++ (re.union (re.* (str.to_re "-")) (re.* (str.to_re ".."))) (re.++ (re.+ (re.* (str.to_re "/"))) (re.++ (re.* (re.+ (str.to_re ":"))) (re.++ (re.* (re.+ (str.to_re ";;"))) (re.++ (re.+ (re.union (str.to_re "<<") (str.to_re "=="))) (re.++ (re.+ (re.union (str.to_re ">>") (str.to_re "?"))) (re.++ (re.+ (re.+ (str.to_re "@@"))) (re.++ (re.+ (re.union (str.to_re "[") (str.to_re "\\\\\\"))) (re.++ (re.union (re.union (str.to_re "]]") (str.to_re "^")) (re.union (str.to_re "_") (str.to_re "``"))) (re.++ (re.* (re.+ (str.to_re "{{"))) (re.++ (re.* (re.union (str.to_re "|||") (str.to_re "}"))) (re.++ (re.union (re.* (str.to_re "~~~")) (re.* (str.to_re "00"))) (re.++ (re.union (re.+ (str.to_re "11")) (re.+ (str.to_re "222"))) (re.++ (re.union (re.+ (str.to_re "333")) (re.+ (str.to_re "44"))) (re.++ (re.+ (re.union (str.to_re "5") (str.to_re "666"))) (re.++ (re.* (re.union (str.to_re "777") (str.to_re "88"))) (re.++ (re.+ (re.union (str.to_re "99") (str.to_re "aaa"))) (re.++ (re.+ (re.* (str.to_re "bbb"))) (re.++ (re.union (re.union (str.to_re "c") (str.to_re "dd")) (re.union (str.to_re "eee") (str.to_re "ff"))) (re.++ (re.* (re.union (str.to_re "ggg") (str.to_re "hhh"))) (re.++ (re.+ (re.+ (str.to_re "i"))) (re.++ (re.+ (re.* (str.to_re "jj"))) (re.++ (re.union (re.union (str.to_re "kk") (str.to_re "lll")) (re.union (str.to_re "m") (str.to_re "nn"))) (re.++ (re.+ (re.union (str.to_re "o") (str.to_re "pp"))) (re.++ (re.* (re.+ (str.to_re "q"))) (re.++ (re.union (re.+ (str.to_re "rr")) (re.+ (str.to_re "ss"))) (re.++ (re.union (re.* (str.to_re "t")) (re.* (str.to_re "u"))) (re.++ (re.+ (re.+ (str.to_re "vvv"))) (re.++ (re.union (re.* (str.to_re "w")) (re.* (str.to_re "xx"))) (re.++ (re.union (re.+ (str.to_re "yyy")) (re.+ (str.to_re "z"))) (re.++ (re.+ (re.* (str.to_re "AA"))) (re.++ (re.+ (re.union (str.to_re "BBB") (str.to_re "CCC"))) (re.++ (re.* (re.* (str.to_re "D"))) (re.++ (re.union (re.union (str.to_re "EEE") (str.to_re "FFF")) (re.union (str.to_re "GG") (str.to_re "HH"))) (re.++ (re.+ (re.+ (str.to_re "III"))) (re.++ (re.* (re.* (str.to_re "JJ"))) (re.++ (re.union (re.+ (str.to_re "K")) (re.+ (str.to_re "LL"))) (re.++ (re.union (re.* (str.to_re "MMM")) (re.* (str.to_re "N"))) (re.++ (re.* (re.union (str.to_re "OO") (str.to_re "P"))) (re.++ (re.+ (re.union (str.to_re "QQ") (str.to_re "RRR"))) (re.++ (re.* (re.+ (str.to_re "SSS"))) (re.++ (re.union (re.* (str.to_re "TT")) (re.* (str.to_re "UU"))) (re.++ (re.* (re.+ (str.to_re "VVV"))) (re.++ (re.union (re.union (str.to_re "WWW") (str.to_re "XX")) (re.union (str.to_re "YY") (str.to_re "Z"))) (re.++ (re.union (re.* (str.to_re "!!!")) (re.* (str.to_re """"))) (re.++ (re.+ (re.+ (str.to_re "###"))) (re.++ (re.+ (re.+ (str.to_re "$"))) (re.++ (re.+ (re.* (str.to_re "%"))) (re.++ (re.union (re.* (str.to_re "&&")) (re.* (str.to_re "''"))) (re.++ (re.union (re.union (str.to_re "(((") (str.to_re "))")) (re.union (str.to_re "*") (str.to_re "++"))) (re.++ (re.+ (re.+ (str.to_re ","))) (re.++ (re.union (re.union (str.to_re "--") (str.to_re "..")) (re.union (str.to_re "/") (str.to_re "::"))) (re.++ (re.+ (re.* (str.to_re ";;"))) (re.++ (re.+ (re.+ (str.to_re "<<<"))) (re.++ (re.* (re.union (str.to_re "==") (str.to_re ">>>"))) (re.++ (re.+ (re.union (str.to_re "??") (str.to_re "@@@"))) (re.++ (re.* (re.+ (str.to_re "["))) (re.++ (re.union (re.* (str.to_re "\\\\\\")) (re.* (str.to_re "]]]"))) (re.++ (re.union (re.+ (str.to_re "^")) (re.+ (str.to_re "__"))) (re.++ (re.* (re.* (str.to_re "```"))) (re.++ (re.+ (re.+ (str.to_re "{"))) (re.++ (re.* (re.union (str.to_re "||") (str.to_re "}}}"))) (re.++ (re.union (re.union (str.to_re "~~~") (str.to_re "00")) (re.union (str.to_re "1") (str.to_re "222"))) (re.++ (re.+ (re.* (str.to_re "33"))) (re.++ (re.* (re.+ (str.to_re "4"))) (re.++ (re.union (re.union (str.to_re "5") (str.to_re "666")) (re.union (str.to_re "777") (str.to_re "8"))) (re.++ (re.union (re.+ (str.to_re "999")) (re.+ (str.to_re "a"))) (re.++ (re.+ (re.+ (str.to_re "b"))) (re.++ (re.* (re.* (str.to_re "ccc"))) (re.++ (re.+ (re.+ (str.to_re "d"))) (re.++ (re.+ (re.union (str.to_re "e") (str.to_re "fff"))) (re.++ (re.+ (re.union (str.to_re "g") (str.to_re "hhh"))) (re.++ (re.+ (re.union (str.to_re "i") (str.to_re "j"))) (re.++ (re.union (re.union (str.to_re "k") (str.to_re "l")) (re.union (str.to_re "m") (str.to_re "nn"))) (re.++ (re.union (re.+ (str.to_re "ooo")) (re.+ (str.to_re "ppp"))) (re.++ (re.+ (re.union (str.to_re "q") (str.to_re "rrr"))) (re.++ (re.union (re.+ (str.to_re "ss")) (re.+ (str.to_re "tt"))) (re.++ (re.+ (re.* (str.to_re "u"))) (re.++ (re.* (re.+ (str.to_re "vv"))) (re.++ (re.union (re.* (str.to_re "ww")) (re.* (str.to_re "xx"))) (re.++ (re.+ (re.* (str.to_re "yy"))) (re.++ (re.union (re.+ (str.to_re "zz")) (re.+ (str.to_re "A"))) (re.++ (re.union (re.union (str.to_re "BBB") (str.to_re "C")) (re.union (str.to_re "DD") (str.to_re "E"))) (re.++ (re.* (re.+ (str.to_re "FF"))) (re.++ (re.union (re.union (str.to_re "GGG") (str.to_re "HH")) (re.union (str.to_re "II") (str.to_re "JJJ"))) (re.++ (re.+ (re.* (str.to_re "KKK"))) (re.++ (re.+ (re.* (str.to_re "L"))) (re.++ (re.+ (re.* (str.to_re "MM"))) (re.++ (re.* (re.union (str.to_re "NNN") (str.to_re "OOO"))) (re.++ (re.union (re.* (str.to_re "PPP")) (re.* (str.to_re "QQQ"))) (re.++ (re.* (re.union (str.to_re "RRR") (str.to_re "S"))) (re.++ (re.union (re.union (str.to_re "TTT") (str.to_re "U")) (re.union (str.to_re "V") (str.to_re "W"))) (re.++ (re.+ (re.+ (str.to_re "X"))) (re.++ (re.* (re.union (str.to_re "YYY") (str.to_re "ZZ"))) (re.++ (re.* (re.union (str.to_re "!!") (str.to_re """"))) (re.++ (re.+ (re.union (str.to_re "##") (str.to_re "$$$"))) (re.* (re.* (str.to_re "%%")))))))))))))))))))))))))))))))))))))))))))))))))))))))))))))))))))))))))))))))))))))))))))))))))))))))))))))))))))))))))))))))))))))))))))))))))))))))))))))))))))))))))))))))))))))))))))))))))))))))))
(check-sat)